33D32945 STP File, STP Format Version 1.0

SECTION Comments
Name "edge_n11_d5_s35"
Problem "Euclidean Steiner Tree Problem"
Remark "Generated with STPGenerator. 5 dimensions."
END

SECTION Graph
Nodes 11
END

SECTION Coordinates
DDDDD 0 0.5244897048 0.5244897048 0.5244897048 0.5244897048 0.5244897048
DDDDD 1 0.4379004908 0.4379004908 0.4379004908 0.4379004908 0.4379004908
DDDDD 2 0.0703035561 0.0703035561 0.0703035561 0.0703035561 0.0703035561
DDDDD 3 0.1812310276 0.1812310276 0.1812310276 0.1812310276 0.1812310276
DDDDD 4 0.1675375119 0.1675375119 0.1675375119 0.1675375119 0.1675375119
DDDDD 5 0.7022328906 0.7022328906 0.7022328906 0.7022328906 0.7022328906
DDDDD 6 0.1086744881 0.1086744881 0.1086744881 0.1086744881 0.1086744881
DDDDD 7 0.7979400231 0.7979400231 0.7979400231 0.7979400231 0.7979400231
DDDDD 8 0.6606961906 0.6606961906 0.6606961906 0.6606961906 0.6606961906
DDDDD 9 0.4311483691 0.4311483691 0.4311483691 0.4311483691 0.4311483691
DDDDD 10 0.7982122655 0.7982122655 0.7982122655 0.7982122655 0.7982122655
END
